title
1.0
        9.4257316589         0.0000000000         0.0000000000
        0.0000000000         9.4257316589         0.0000000000
        0.0000000000         0.0000000000        14.1385984421
    C    N   Zr
   36   12   48
Direct
     0.000000000         0.000000000         0.833333313
     0.750000000         0.750000000         0.833333313
     0.750000000         0.000000000         0.666666627
     0.000000000         0.750000000         0.666666627
     0.000000000         0.000000000         0.500000000
     0.750000000         0.750000000         0.500000000
     0.750000000         0.000000000         0.333333313
     0.000000000         0.750000000         0.333333313
     0.750000000         0.750000000         0.166666657
     0.000000000         0.249999985         0.000000000
     0.000000000         0.499999970         0.833333313
     0.750000000         0.249999985         0.833333313
     0.750000000         0.499999970         0.666666627
     0.000000000         0.249999985         0.666666627
     0.000000000         0.499999970         0.500000000
     0.750000000         0.249999985         0.500000000
     0.000000000         0.499999970         0.166666657
     0.750000000         0.249999985         0.166666657
     0.499999970         0.750000000         0.000000000
     0.499999970         0.000000000         0.833333313
     0.249999985         0.750000000         0.833333313
     0.249999985         0.000000000         0.666666627
     0.499999970         0.000000000         0.500000000
     0.249999985         0.000000000         0.333333313
     0.499999970         0.750000000         0.333333313
     0.499999970         0.000000000         0.166666657
     0.249999985         0.750000000         0.166666657
     0.249999985         0.499999970         0.000000000
     0.499999970         0.249999985         0.000000000
     0.499999970         0.499999970         0.833333313
     0.249999985         0.249999985         0.833333313
     0.249999985         0.499999970         0.666666627
     0.499999970         0.249999985         0.666666627
     0.499999970         0.499999970         0.500000000
     0.249999985         0.249999985         0.500000000
     0.499999970         0.499999970         0.166666657
     0.750000000         0.000000000         0.000000000
     0.000000000         0.750000000         0.000000000
     0.000000000         0.000000000         0.166666657
     0.750000000         0.499999970         0.000000000
     0.750000000         0.499999970         0.333333313
     0.000000000         0.249999985         0.333333313
     0.249999985         0.000000000         0.000000000
     0.499999970         0.750000000         0.666666627
     0.249999985         0.750000000         0.500000000
     0.249999985         0.499999970         0.333333313
     0.499999970         0.249999985         0.333333313
     0.249999985         0.249999985         0.166666657
     0.000000000         0.000000000         0.000000000
     0.750000000         0.750000000         0.000000000
     0.750000000         0.000000000         0.833333373
     0.000000000         0.750000000         0.833333373
     0.000000000         0.000000000         0.666666687
     0.750000000         0.750000000         0.666666687
     0.750000000         0.000000000         0.500000000
     0.000000000         0.750000000         0.500000000
     0.000000000         0.000000000         0.333333373
     0.750000000         0.750000000         0.333333373
     0.750000000         0.000000000         0.166666687
     0.000000000         0.750000000         0.166666687
     0.000000000         0.500000000         0.000000000
     0.750000000         0.250000000         0.000000000
     0.750000000         0.500000000         0.833333373
     0.000000000         0.250000000         0.833333373
     0.000000000         0.500000000         0.666666687
     0.750000000         0.250000000         0.666666687
     0.750000000         0.500000000         0.500000000
     0.000000000         0.250000000         0.500000000
     0.000000000         0.500000000         0.333333373
     0.750000000         0.250000000         0.333333373
     0.750000000         0.500000000         0.166666687
     0.000000000         0.250000000         0.166666687
     0.500000000         0.000000000         0.000000000
     0.250000000         0.750000000         0.000000000
     0.250000000         0.000000000         0.833333373
     0.500000000         0.750000000         0.833333373
     0.500000000         0.000000000         0.666666687
     0.250000000         0.750000000         0.666666687
     0.250000000         0.000000000         0.500000000
     0.500000000         0.750000000         0.500000000
     0.500000000         0.000000000         0.333333373
     0.250000000         0.750000000         0.333333373
     0.250000000         0.000000000         0.166666687
     0.500000000         0.750000000         0.166666687
     0.500000000         0.500000000         0.000000000
     0.250000000         0.250000000         0.000000000
     0.250000000         0.500000000         0.833333373
     0.500000000         0.250000000         0.833333373
     0.500000000         0.500000000         0.666666687
     0.250000000         0.250000000         0.666666687
     0.250000000         0.500000000         0.500000000
     0.500000000         0.250000000         0.500000000
     0.500000000         0.500000000         0.333333373
     0.250000000         0.250000000         0.333333373
     0.250000000         0.500000000         0.166666687
     0.500000000         0.250000000         0.166666687
