Structure generated by SLUSCHI and SGUSCHI
1.0
   14.1385984420999993     0.0000000000000000     0.0000000000000000
    0.0000000000000000     9.4257316589000002     0.0000000000000000
    0.0000000000000000     0.0000000000000000     9.4257316589000002
   C   N   Zr
   36   12   48
Direct
    0.8333333130000000     0.0000000000000000     0.0000000000000000
    0.8333333130000000     0.7500000000000000     0.7500000000000000
    0.6666666270000000     0.0000000000000000     0.7500000000000000
    0.6666666270000000     0.7500000000000000     0.0000000000000000
    0.5000000000000000     0.0000000000000000     0.0000000000000000
    0.5000000000000000     0.7500000000000000     0.7500000000000000
    0.3333333130000000     0.0000000000000000     0.7500000000000000
    0.3333333130000000     0.7500000000000000     0.0000000000000000
    0.1666666570000000     0.7500000000000000     0.7500000000000000
    0.0000000000000000     0.2499999850000000     0.0000000000000000
    0.8333333130000000     0.4999999700000000     0.0000000000000000
    0.8333333130000000     0.2499999850000000     0.7500000000000000
    0.6666666270000000     0.4999999700000000     0.7500000000000000
    0.6666666270000000     0.2499999850000000     0.0000000000000000
    0.5000000000000000     0.4999999700000000     0.0000000000000000
    0.5000000000000000     0.2499999850000000     0.7500000000000000
    0.1666666570000000     0.4999999700000000     0.0000000000000000
    0.1666666570000000     0.2499999850000000     0.7500000000000000
    0.0000000000000000     0.7500000000000000     0.4999999700000000
    0.8333333130000000     0.0000000000000000     0.4999999700000000
    0.8333333130000000     0.7500000000000000     0.2499999850000000
    0.6666666270000000     0.0000000000000000     0.2499999850000000
    0.5000000000000000     0.0000000000000000     0.4999999700000000
    0.3333333130000000     0.0000000000000000     0.2499999850000000
    0.3333333130000000     0.7500000000000000     0.4999999700000000
    0.1666666570000000     0.0000000000000000     0.4999999700000000
    0.1666666570000000     0.7500000000000000     0.2499999850000000
    0.0000000000000000     0.4999999700000000     0.2499999850000000
    0.0000000000000000     0.2499999850000000     0.4999999700000000
    0.8333333130000000     0.4999999700000000     0.4999999700000000
    0.8333333130000000     0.2499999850000000     0.2499999850000000
    0.6666666270000000     0.4999999700000000     0.2499999850000000
    0.6666666270000000     0.2499999850000000     0.4999999700000000
    0.5000000000000000     0.4999999700000000     0.4999999700000000
    0.5000000000000000     0.2499999850000000     0.2499999850000000
    0.1666666570000000     0.4999999700000000     0.4999999700000000
    0.0000000000000000     0.0000000000000000     0.7500000000000000
    0.0000000000000000     0.7500000000000000     0.0000000000000000
    0.1666666570000000     0.0000000000000000     0.0000000000000000
    0.0000000000000000     0.4999999700000000     0.7500000000000000
    0.3333333130000000     0.4999999700000000     0.7500000000000000
    0.3333333130000000     0.2499999850000000     0.0000000000000000
    0.0000000000000000     0.0000000000000000     0.2499999850000000
    0.6666666270000000     0.7500000000000000     0.4999999700000000
    0.5000000000000000     0.7500000000000000     0.2499999850000000
    0.3333333130000000     0.4999999700000000     0.2499999850000000
    0.3333333130000000     0.2499999850000000     0.4999999700000000
    0.1666666570000000     0.2499999850000000     0.2499999850000000
    0.0000000000000000     0.0000000000000000     0.0000000000000000
    0.0000000000000000     0.7500000000000000     0.7500000000000000
    0.8333333730000000     0.0000000000000000     0.7500000000000000
    0.8333333730000000     0.7500000000000000     0.0000000000000000
    0.6666666870000000     0.0000000000000000     0.0000000000000000
    0.6666666870000000     0.7500000000000000     0.7500000000000000
    0.5000000000000000     0.0000000000000000     0.7500000000000000
    0.5000000000000000     0.7500000000000000     0.0000000000000000
    0.3333333730000000     0.0000000000000000     0.0000000000000000
    0.3333333730000000     0.7500000000000000     0.7500000000000000
    0.1666666870000000     0.0000000000000000     0.7500000000000000
    0.1666666870000000     0.7500000000000000     0.0000000000000000
    0.0000000000000000     0.5000000000000000     0.0000000000000000
    0.0000000000000000     0.2500000000000000     0.7500000000000000
    0.8333333730000000     0.5000000000000000     0.7500000000000000
    0.8333333730000000     0.2500000000000000     0.0000000000000000
    0.6666666870000000     0.5000000000000000     0.0000000000000000
    0.6666666870000000     0.2500000000000000     0.7500000000000000
    0.5000000000000000     0.5000000000000000     0.7500000000000000
    0.5000000000000000     0.2500000000000000     0.0000000000000000
    0.3333333730000000     0.5000000000000000     0.0000000000000000
    0.3333333730000000     0.2500000000000000     0.7500000000000000
    0.1666666870000000     0.5000000000000000     0.7500000000000000
    0.1666666870000000     0.2500000000000000     0.0000000000000000
    0.0000000000000000     0.0000000000000000     0.5000000000000000
    0.0000000000000000     0.7500000000000000     0.2500000000000000
    0.8333333730000000     0.0000000000000000     0.2500000000000000
    0.8333333730000000     0.7500000000000000     0.5000000000000000
    0.6666666870000000     0.0000000000000000     0.5000000000000000
    0.6666666870000000     0.7500000000000000     0.2500000000000000
    0.5000000000000000     0.0000000000000000     0.2500000000000000
    0.5000000000000000     0.7500000000000000     0.5000000000000000
    0.3333333730000000     0.0000000000000000     0.5000000000000000
    0.3333333730000000     0.7500000000000000     0.2500000000000000
    0.1666666870000000     0.0000000000000000     0.2500000000000000
    0.1666666870000000     0.7500000000000000     0.5000000000000000
    0.0000000000000000     0.5000000000000000     0.5000000000000000
    0.0000000000000000     0.2500000000000000     0.2500000000000000
    0.8333333730000000     0.5000000000000000     0.2500000000000000
    0.8333333730000000     0.2500000000000000     0.5000000000000000
    0.6666666870000000     0.5000000000000000     0.5000000000000000
    0.6666666870000000     0.2500000000000000     0.2500000000000000
    0.5000000000000000     0.5000000000000000     0.2500000000000000
    0.5000000000000000     0.2500000000000000     0.5000000000000000
    0.3333333730000000     0.5000000000000000     0.5000000000000000
    0.3333333730000000     0.2500000000000000     0.2500000000000000
    0.1666666870000000     0.5000000000000000     0.2500000000000000
    0.1666666870000000     0.2500000000000000     0.5000000000000000
