Structure generated by SLUSCHI and SGUSCHI
1.0
   42.4157953262999996     0.0000000000000000     0.0000000000000000
    0.0000000000000000     9.4257316589000002     0.0000000000000000
    0.0000000000000000     0.0000000000000000     9.4257316589000002
   C   N   Zr   O
   36   12   48   20
Direct
    0.2777777710000000     0.0000000000000000     0.0000000000000000
    0.2777777710000000     0.7500000000000000     0.7500000000000000
    0.2222222090000000     0.0000000000000000     0.7500000000000000
    0.2222222090000000     0.7500000000000000     0.0000000000000000
    0.1666666666666667     0.0000000000000000     0.0000000000000000
    0.1666666666666667     0.7500000000000000     0.7500000000000000
    0.1111111043333333     0.0000000000000000     0.7500000000000000
    0.1111111043333333     0.7500000000000000     0.0000000000000000
    0.0555555523333333     0.7500000000000000     0.7500000000000000
    0.0000000000000000     0.2499999850000000     0.0000000000000000
    0.2777777710000000     0.4999999700000000     0.0000000000000000
    0.2777777710000000     0.2499999850000000     0.7500000000000000
    0.2222222090000000     0.4999999700000000     0.7500000000000000
    0.2222222090000000     0.2499999850000000     0.0000000000000000
    0.1666666666666667     0.4999999700000000     0.0000000000000000
    0.1666666666666667     0.2499999850000000     0.7500000000000000
    0.0555555523333333     0.4999999700000000     0.0000000000000000
    0.0555555523333333     0.2499999850000000     0.7500000000000000
    0.0000000000000000     0.7500000000000000     0.4999999700000000
    0.2777777710000000     0.0000000000000000     0.4999999700000000
    0.2777777710000000     0.7500000000000000     0.2499999850000000
    0.2222222090000000     0.0000000000000000     0.2499999850000000
    0.1666666666666667     0.0000000000000000     0.4999999700000000
    0.1111111043333333     0.0000000000000000     0.2499999850000000
    0.1111111043333333     0.7500000000000000     0.4999999700000000
    0.0555555523333333     0.0000000000000000     0.4999999700000000
    0.0555555523333333     0.7500000000000000     0.2499999850000000
    0.0000000000000000     0.4999999700000000     0.2499999850000000
    0.0000000000000000     0.2499999850000000     0.4999999700000000
    0.2777777710000000     0.4999999700000000     0.4999999700000000
    0.2777777710000000     0.2499999850000000     0.2499999850000000
    0.2222222090000000     0.4999999700000000     0.2499999850000000
    0.2222222090000000     0.2499999850000000     0.4999999700000000
    0.1666666666666667     0.4999999700000000     0.4999999700000000
    0.1666666666666667     0.2499999850000000     0.2499999850000000
    0.0555555523333333     0.4999999700000000     0.4999999700000000
    0.0000000000000000     0.0000000000000000     0.7500000000000000
    0.0000000000000000     0.7500000000000000     0.0000000000000000
    0.0555555523333333     0.0000000000000000     0.0000000000000000
    0.0000000000000000     0.4999999700000000     0.7500000000000000
    0.1111111043333333     0.4999999700000000     0.7500000000000000
    0.1111111043333333     0.2499999850000000     0.0000000000000000
    0.0000000000000000     0.0000000000000000     0.2499999850000000
    0.2222222090000000     0.7500000000000000     0.4999999700000000
    0.1666666666666667     0.7500000000000000     0.2499999850000000
    0.1111111043333333     0.4999999700000000     0.2499999850000000
    0.1111111043333333     0.2499999850000000     0.4999999700000000
    0.0555555523333333     0.2499999850000000     0.2499999850000000
    0.0000000000000000     0.0000000000000000     0.0000000000000000
    0.0000000000000000     0.7500000000000000     0.7500000000000000
    0.2777777910000000     0.0000000000000000     0.7500000000000000
    0.2777777910000000     0.7500000000000000     0.0000000000000000
    0.2222222290000000     0.0000000000000000     0.0000000000000000
    0.2222222290000000     0.7500000000000000     0.7500000000000000
    0.1666666666666667     0.0000000000000000     0.7500000000000000
    0.1666666666666667     0.7500000000000000     0.0000000000000000
    0.1111111243333333     0.0000000000000000     0.0000000000000000
    0.1111111243333333     0.7500000000000000     0.7500000000000000
    0.0555555623333333     0.0000000000000000     0.7500000000000000
    0.0555555623333333     0.7500000000000000     0.0000000000000000
    0.0000000000000000     0.5000000000000000     0.0000000000000000
    0.0000000000000000     0.2500000000000000     0.7500000000000000
    0.2777777910000000     0.5000000000000000     0.7500000000000000
    0.2777777910000000     0.2500000000000000     0.0000000000000000
    0.2222222290000000     0.5000000000000000     0.0000000000000000
    0.2222222290000000     0.2500000000000000     0.7500000000000000
    0.1666666666666667     0.5000000000000000     0.7500000000000000
    0.1666666666666667     0.2500000000000000     0.0000000000000000
    0.1111111243333333     0.5000000000000000     0.0000000000000000
    0.1111111243333333     0.2500000000000000     0.7500000000000000
    0.0555555623333333     0.5000000000000000     0.7500000000000000
    0.0555555623333333     0.2500000000000000     0.0000000000000000
    0.0000000000000000     0.0000000000000000     0.5000000000000000
    0.0000000000000000     0.7500000000000000     0.2500000000000000
    0.2777777910000000     0.0000000000000000     0.2500000000000000
    0.2777777910000000     0.7500000000000000     0.5000000000000000
    0.2222222290000000     0.0000000000000000     0.5000000000000000
    0.2222222290000000     0.7500000000000000     0.2500000000000000
    0.1666666666666667     0.0000000000000000     0.2500000000000000
    0.1666666666666667     0.7500000000000000     0.5000000000000000
    0.1111111243333333     0.0000000000000000     0.5000000000000000
    0.1111111243333333     0.7500000000000000     0.2500000000000000
    0.0555555623333333     0.0000000000000000     0.2500000000000000
    0.0555555623333333     0.7500000000000000     0.5000000000000000
    0.0000000000000000     0.5000000000000000     0.5000000000000000
    0.0000000000000000     0.2500000000000000     0.2500000000000000
    0.2777777910000000     0.5000000000000000     0.2500000000000000
    0.2777777910000000     0.2500000000000000     0.5000000000000000
    0.2222222290000000     0.5000000000000000     0.5000000000000000
    0.2222222290000000     0.2500000000000000     0.2500000000000000
    0.1666666666666667     0.5000000000000000     0.2500000000000000
    0.1666666666666667     0.2500000000000000     0.5000000000000000
    0.1111111243333333     0.5000000000000000     0.5000000000000000
    0.1111111243333333     0.2500000000000000     0.2500000000000000
    0.0555555623333333     0.5000000000000000     0.2500000000000000
    0.0555555623333333     0.2500000000000000     0.5000000000000000
    0.6203176557400192     0.2734634958230167     0.8385061538307135
    0.6486090031206007     0.2734634958230167     0.8385061538307135
    0.8610421004138280     0.4369566489688693     0.7012675967608051
    0.8893334477944095     0.4369566489688693     0.7012675967608051
    0.3846164057100522     0.4955124922454696     0.9634680052741734
    0.4129077530906337     0.4955124922454696     0.9634680052741734
    0.7378614873333026     0.1573939611511076     0.7944986138085073
    0.7661528347138841     0.1573939611511076     0.7944986138085073
    0.6797349748956143     0.7293734242425286     0.1277740993977884
    0.7080263222761958     0.7293734242425286     0.1277740993977884
    0.3839962185741624     0.7920004960952908     0.5053367289808196
    0.4122875659547439     0.7920004960952908     0.5053367289808196
    0.5635773025699823     0.2420742252490796     0.3599842986969309
    0.5918686499505638     0.2420742252490796     0.3599842986969309
    0.4876312781315579     0.2630261399882343     0.7818099840223335
    0.5159226255121394     0.2630261399882343     0.7818099840223335
    0.8297982580882001     0.9473506361132410     0.5118610990285197
    0.8580896054687815     0.9473506361132410     0.5118610990285197
    0.5209105536777753     0.6921809394863543     0.1226003697880197
    0.5492019010583568     0.6921809394863543     0.1226003697880197
