C  N  Zr - Use Cubic structure, x axis will be expanded for the Gas phase.                     
    1.000000000000000     
    13.9400455702151014    0.0000000000000000    0.0000000000000000
     0.0000000000000000    9.2933637134767331    0.0000000000000000
     0.0000000000000000    0.0000000000000000    9.2933637134767331
   C    N    Zr
    24    24    48
Direct
     0.0010739934148564    0.0018454564431196    0.2485977245183749
     0.1671375993466870    0.2508507103063437    0.7522825836267999
     0.1696201192227059    0.0002516927878005    0.4983176895714345
     0.9994853527542852    0.2513695284811217    0.4989200045686482
     0.0007820783801276    0.0013580926253565    0.7511249561349882
     0.0011174677203624    0.7471695490307791    0.0009794749558729
     0.1676743337969558    0.7490786353411230    0.7508935599444224
     0.1680778445778135    0.4998607664361664    0.4991886386204522
     0.0005562580729650    0.7485273222856863    0.4995085506456427
     0.4983123526273023    0.0014340459600973    0.0013949954789076
     0.4990490366100579    0.2509087617982232    0.7481714824982402
     0.4998209336153914    0.7497541451640991    0.2524596546127581
     0.3323885847139494    0.7497657340702714    0.0002766922667614
     0.3333503049678709    0.4985976443574008    0.2499305738934629
     0.4988381461362104    0.7493946902674706    0.7477285368210759
     0.8337244902270350    0.0023532910965089    0.0006278775044990
     0.6671933482858842    0.2514182171113064    0.0020833670553579
     0.8310292598471375    0.0018106389343218    0.4988803379554400
     0.6659909973564806    0.0009297074856349    0.7477321675068423
     0.8329356499073832    0.7483099229291676    0.2503482832473900
     0.6665822006981909    0.7482198902574749    0.0015971058455496
     0.8335009848287447    0.7483045037683724    0.7500939361324244
     0.8318790497727208    0.4986129040705836    0.4993433538386287
     0.6666493027004556    0.4990470291372353    0.7492100065314919
     0.1671615359425745    0.2503226066294391    0.2476284374592388
     0.1680870243019717    0.0017831767266591    0.0015234971588827
     0.0011271373668701    0.2526169535924096    0.0006996721921012
     0.1671216910559374    0.7501728219839530    0.2495992163386259
     0.1660780688540658    0.4978350492189166    0.0010413203780363
     0.9996916037767942    0.4985528509598880    0.2473967835904417
     0.0004032382110848    0.4981052546548510    0.7531098901643860
     0.5001266430077674    0.2496428624393401    0.2517221761016823
     0.3315206255698420    0.2501424182739589    0.0014546121986328
     0.3338251185408390    0.0016606886206587    0.2505243321393030
     0.4991329866066129    0.0015185165457277    0.4980996941202943
     0.3353477380637962    0.2492715972857943    0.4986291876055312
     0.3333174245540493    0.0010208716091197    0.7487677021917030
     0.4993227780873444    0.4981324387680372    0.0012061685375586
     0.5001528855351313    0.4990198154865372    0.4990600726944366
     0.3347810013272214    0.7509911092694045    0.4996042859057092
     0.3328371070458846    0.4991582069068622    0.7504557300028114
     0.8326457517365951    0.2516360115309713    0.2489535312552149
     0.6649884067524909    0.0019552850857479    0.2521083361526881
     0.8340857464709047    0.2516436873269435    0.7508837016137383
     0.6650034738142664    0.2505709225140844    0.4974171435314182
     0.8347619239760719    0.4974843727735925    0.0009654078467532
     0.6671335250050495    0.4973709441722575    0.2508569044680644
     0.6646432388069221    0.7502711511973311    0.4986813283858371
     0.9994260841093429    0.9989679626284294    0.9994796938073232
     0.9998859142871378    0.2477031246293661    0.2521907725756767
     0.1651303897152041    0.9994614756586339    0.2518898013631108
     0.1657387239410516    0.2495287453606858    0.9969785079252642
     0.9997622078979810    0.9994898308995703    0.5005573105488378
     0.0001123757229345    0.2480038635758472    0.7483348993128662
     0.1658314296022949    0.9993689976373027    0.7490536768563520
     0.1657751951036066    0.2500452836947462    0.5013626057858430
     0.9995613594242194    0.5028944065014788    0.9998974548414812
     0.9996174884932547    0.7510673462824634    0.2507033373033539
     0.1671611629227729    0.5005658314908871    0.2523470850308012
     0.1661157858550871    0.7504387147723849    0.9984747401095120
     0.9999401280859928    0.5003889743162779    0.4999500296508531
     0.9995526086745806    0.7512222032643082    0.7494732895073593
     0.1662475851651193    0.5002656467001454    0.7481552314280315
     0.1656246968066204    0.7501722509320393    0.5011158612353617
     0.3341274545644510    0.9978685206816003    0.0000110502547106
     0.3336628771879120    0.2522828123591173    0.2494621432608649
     0.5003267743018196    0.9977752777602352    0.2475379849850613
     0.5006891797019611    0.2485366370257204    0.9984043674627121
     0.3319610529230270    0.9991424597077032    0.5000449107138725
     0.3333059787704615    0.2502883174040867    0.7506050264236330
     0.5007461618203898    0.9995932241318793    0.7512059797226038
     0.5006776118650003    0.2497557954984656    0.5030297536829108
     0.3331480084310235    0.5022943351547380    0.0012870136549165
     0.3338873170953313    0.7485260135315743    0.2485822395462145
     0.4996056681642603    0.5022644824601111    0.2497601643867078
     0.5004479004148928    0.7504817916329976    0.9995730129225729
     0.3324328776898149    0.5005083808358639    0.4986533861715933
     0.3333574194102838    0.7496175749644047    0.7513656843923604
     0.5009619126577353    0.5004857736862663    0.7503054964396049
     0.5006122820694201    0.7503033513761960    0.5005007812600676
     0.6667816124840248    0.9992403231070941    0.9988399819052746
     0.6666017030406437    0.2497801978659170    0.2470004463110611
     0.8337931482080960    0.9984259836164225    0.2498546094955302
     0.8326256483426905    0.2474364498374108    0.9993599800157210
     0.6680980612518154    0.9996236791922878    0.5024729622444850
     0.6665388043992063    0.2497710159112961    0.7515608591937468
     0.8334669491938111    0.9991273230980562    0.7501091201012263
     0.8342822561316672    0.2496221670983730    0.5005496776389290
     0.6671237648397857    0.5006220551386618    0.9982449369962147
     0.6669442113256051    0.7500840899880140    0.2478607724714146
     0.8334569172659658    0.5027522056455853    0.2518582027403884
     0.8333840597270997    0.7509621525564705    0.9996904286195327
     0.6678098499104271    0.5004261493872583    0.5022221241962798
     0.6670378200580660    0.7504965455707074    0.7509896048238058
     0.8328799010129413    0.5017463735989499    0.7486600697202491
     0.8336753159415081    0.7505213881138189    0.5003522451551505
 
  0.00000000E+00  0.00000000E+00  0.00000000E+00
  0.00000000E+00  0.00000000E+00  0.00000000E+00
  0.00000000E+00  0.00000000E+00  0.00000000E+00
  0.00000000E+00  0.00000000E+00  0.00000000E+00
  0.00000000E+00  0.00000000E+00  0.00000000E+00
  0.00000000E+00  0.00000000E+00  0.00000000E+00
  0.00000000E+00  0.00000000E+00  0.00000000E+00
  0.00000000E+00  0.00000000E+00  0.00000000E+00
  0.00000000E+00  0.00000000E+00  0.00000000E+00
  0.00000000E+00  0.00000000E+00  0.00000000E+00
  0.00000000E+00  0.00000000E+00  0.00000000E+00
  0.00000000E+00  0.00000000E+00  0.00000000E+00
  0.00000000E+00  0.00000000E+00  0.00000000E+00
  0.00000000E+00  0.00000000E+00  0.00000000E+00
  0.00000000E+00  0.00000000E+00  0.00000000E+00
  0.00000000E+00  0.00000000E+00  0.00000000E+00
  0.00000000E+00  0.00000000E+00  0.00000000E+00
  0.00000000E+00  0.00000000E+00  0.00000000E+00
  0.00000000E+00  0.00000000E+00  0.00000000E+00
  0.00000000E+00  0.00000000E+00  0.00000000E+00
  0.00000000E+00  0.00000000E+00  0.00000000E+00
  0.00000000E+00  0.00000000E+00  0.00000000E+00
  0.00000000E+00  0.00000000E+00  0.00000000E+00
  0.00000000E+00  0.00000000E+00  0.00000000E+00
  0.00000000E+00  0.00000000E+00  0.00000000E+00
  0.00000000E+00  0.00000000E+00  0.00000000E+00
  0.00000000E+00  0.00000000E+00  0.00000000E+00
  0.00000000E+00  0.00000000E+00  0.00000000E+00
  0.00000000E+00  0.00000000E+00  0.00000000E+00
  0.00000000E+00  0.00000000E+00  0.00000000E+00
  0.00000000E+00  0.00000000E+00  0.00000000E+00
  0.00000000E+00  0.00000000E+00  0.00000000E+00
  0.00000000E+00  0.00000000E+00  0.00000000E+00
  0.00000000E+00  0.00000000E+00  0.00000000E+00
  0.00000000E+00  0.00000000E+00  0.00000000E+00
  0.00000000E+00  0.00000000E+00  0.00000000E+00
  0.00000000E+00  0.00000000E+00  0.00000000E+00
  0.00000000E+00  0.00000000E+00  0.00000000E+00
  0.00000000E+00  0.00000000E+00  0.00000000E+00
  0.00000000E+00  0.00000000E+00  0.00000000E+00
  0.00000000E+00  0.00000000E+00  0.00000000E+00
  0.00000000E+00  0.00000000E+00  0.00000000E+00
  0.00000000E+00  0.00000000E+00  0.00000000E+00
  0.00000000E+00  0.00000000E+00  0.00000000E+00
  0.00000000E+00  0.00000000E+00  0.00000000E+00
  0.00000000E+00  0.00000000E+00  0.00000000E+00
  0.00000000E+00  0.00000000E+00  0.00000000E+00
  0.00000000E+00  0.00000000E+00  0.00000000E+00
  0.00000000E+00  0.00000000E+00  0.00000000E+00
  0.00000000E+00  0.00000000E+00  0.00000000E+00
  0.00000000E+00  0.00000000E+00  0.00000000E+00
  0.00000000E+00  0.00000000E+00  0.00000000E+00
  0.00000000E+00  0.00000000E+00  0.00000000E+00
  0.00000000E+00  0.00000000E+00  0.00000000E+00
  0.00000000E+00  0.00000000E+00  0.00000000E+00
  0.00000000E+00  0.00000000E+00  0.00000000E+00
  0.00000000E+00  0.00000000E+00  0.00000000E+00
  0.00000000E+00  0.00000000E+00  0.00000000E+00
  0.00000000E+00  0.00000000E+00  0.00000000E+00
  0.00000000E+00  0.00000000E+00  0.00000000E+00
  0.00000000E+00  0.00000000E+00  0.00000000E+00
  0.00000000E+00  0.00000000E+00  0.00000000E+00
  0.00000000E+00  0.00000000E+00  0.00000000E+00
  0.00000000E+00  0.00000000E+00  0.00000000E+00
  0.00000000E+00  0.00000000E+00  0.00000000E+00
  0.00000000E+00  0.00000000E+00  0.00000000E+00
  0.00000000E+00  0.00000000E+00  0.00000000E+00
  0.00000000E+00  0.00000000E+00  0.00000000E+00
  0.00000000E+00  0.00000000E+00  0.00000000E+00
  0.00000000E+00  0.00000000E+00  0.00000000E+00
  0.00000000E+00  0.00000000E+00  0.00000000E+00
  0.00000000E+00  0.00000000E+00  0.00000000E+00
  0.00000000E+00  0.00000000E+00  0.00000000E+00
  0.00000000E+00  0.00000000E+00  0.00000000E+00
  0.00000000E+00  0.00000000E+00  0.00000000E+00
  0.00000000E+00  0.00000000E+00  0.00000000E+00
  0.00000000E+00  0.00000000E+00  0.00000000E+00
  0.00000000E+00  0.00000000E+00  0.00000000E+00
  0.00000000E+00  0.00000000E+00  0.00000000E+00
  0.00000000E+00  0.00000000E+00  0.00000000E+00
  0.00000000E+00  0.00000000E+00  0.00000000E+00
  0.00000000E+00  0.00000000E+00  0.00000000E+00
  0.00000000E+00  0.00000000E+00  0.00000000E+00
  0.00000000E+00  0.00000000E+00  0.00000000E+00
  0.00000000E+00  0.00000000E+00  0.00000000E+00
  0.00000000E+00  0.00000000E+00  0.00000000E+00
  0.00000000E+00  0.00000000E+00  0.00000000E+00
  0.00000000E+00  0.00000000E+00  0.00000000E+00
  0.00000000E+00  0.00000000E+00  0.00000000E+00
  0.00000000E+00  0.00000000E+00  0.00000000E+00
  0.00000000E+00  0.00000000E+00  0.00000000E+00
  0.00000000E+00  0.00000000E+00  0.00000000E+00
  0.00000000E+00  0.00000000E+00  0.00000000E+00
  0.00000000E+00  0.00000000E+00  0.00000000E+00
  0.00000000E+00  0.00000000E+00  0.00000000E+00
  0.00000000E+00  0.00000000E+00  0.00000000E+00
