Structure generated by SLUSCHI and SGUSCHI
1.0
   42.4157953262999996     0.0000000000000000     0.0000000000000000
    0.0000000000000000     9.4257316589000002     0.0000000000000000
    0.0000000000000000     0.0000000000000000     9.4257316589000002
   C   N   Zr
   36   12   48
Direct
    0.2777777710000000     0.0000000000000000     0.0000000000000000
    0.2777777710000000     0.7500000000000000     0.7500000000000000
    0.2222222090000000     0.0000000000000000     0.7500000000000000
    0.2222222090000000     0.7500000000000000     0.0000000000000000
    0.1666666666666667     0.0000000000000000     0.0000000000000000
    0.1666666666666667     0.7500000000000000     0.7500000000000000
    0.1111111043333333     0.0000000000000000     0.7500000000000000
    0.1111111043333333     0.7500000000000000     0.0000000000000000
    0.0555555523333333     0.7500000000000000     0.7500000000000000
    0.0000000000000000     0.2499999850000000     0.0000000000000000
    0.2777777710000000     0.4999999700000000     0.0000000000000000
    0.2777777710000000     0.2499999850000000     0.7500000000000000
    0.2222222090000000     0.4999999700000000     0.7500000000000000
    0.2222222090000000     0.2499999850000000     0.0000000000000000
    0.1666666666666667     0.4999999700000000     0.0000000000000000
    0.1666666666666667     0.2499999850000000     0.7500000000000000
    0.0555555523333333     0.4999999700000000     0.0000000000000000
    0.0555555523333333     0.2499999850000000     0.7500000000000000
    0.0000000000000000     0.7500000000000000     0.4999999700000000
    0.2777777710000000     0.0000000000000000     0.4999999700000000
    0.2777777710000000     0.7500000000000000     0.2499999850000000
    0.2222222090000000     0.0000000000000000     0.2499999850000000
    0.1666666666666667     0.0000000000000000     0.4999999700000000
    0.1111111043333333     0.0000000000000000     0.2499999850000000
    0.1111111043333333     0.7500000000000000     0.4999999700000000
    0.0555555523333333     0.0000000000000000     0.4999999700000000
    0.0555555523333333     0.7500000000000000     0.2499999850000000
    0.0000000000000000     0.4999999700000000     0.2499999850000000
    0.0000000000000000     0.2499999850000000     0.4999999700000000
    0.2777777710000000     0.4999999700000000     0.4999999700000000
    0.2777777710000000     0.2499999850000000     0.2499999850000000
    0.2222222090000000     0.4999999700000000     0.2499999850000000
    0.2222222090000000     0.2499999850000000     0.4999999700000000
    0.1666666666666667     0.4999999700000000     0.4999999700000000
    0.1666666666666667     0.2499999850000000     0.2499999850000000
    0.0555555523333333     0.4999999700000000     0.4999999700000000
    0.0000000000000000     0.0000000000000000     0.7500000000000000
    0.0000000000000000     0.7500000000000000     0.0000000000000000
    0.0555555523333333     0.0000000000000000     0.0000000000000000
    0.0000000000000000     0.4999999700000000     0.7500000000000000
    0.1111111043333333     0.4999999700000000     0.7500000000000000
    0.1111111043333333     0.2499999850000000     0.0000000000000000
    0.0000000000000000     0.0000000000000000     0.2499999850000000
    0.2222222090000000     0.7500000000000000     0.4999999700000000
    0.1666666666666667     0.7500000000000000     0.2499999850000000
    0.1111111043333333     0.4999999700000000     0.2499999850000000
    0.1111111043333333     0.2499999850000000     0.4999999700000000
    0.0555555523333333     0.2499999850000000     0.2499999850000000
    0.0000000000000000     0.0000000000000000     0.0000000000000000
    0.0000000000000000     0.7500000000000000     0.7500000000000000
    0.2777777910000000     0.0000000000000000     0.7500000000000000
    0.2777777910000000     0.7500000000000000     0.0000000000000000
    0.2222222290000000     0.0000000000000000     0.0000000000000000
    0.2222222290000000     0.7500000000000000     0.7500000000000000
    0.1666666666666667     0.0000000000000000     0.7500000000000000
    0.1666666666666667     0.7500000000000000     0.0000000000000000
    0.1111111243333333     0.0000000000000000     0.0000000000000000
    0.1111111243333333     0.7500000000000000     0.7500000000000000
    0.0555555623333333     0.0000000000000000     0.7500000000000000
    0.0555555623333333     0.7500000000000000     0.0000000000000000
    0.0000000000000000     0.5000000000000000     0.0000000000000000
    0.0000000000000000     0.2500000000000000     0.7500000000000000
    0.2777777910000000     0.5000000000000000     0.7500000000000000
    0.2777777910000000     0.2500000000000000     0.0000000000000000
    0.2222222290000000     0.5000000000000000     0.0000000000000000
    0.2222222290000000     0.2500000000000000     0.7500000000000000
    0.1666666666666667     0.5000000000000000     0.7500000000000000
    0.1666666666666667     0.2500000000000000     0.0000000000000000
    0.1111111243333333     0.5000000000000000     0.0000000000000000
    0.1111111243333333     0.2500000000000000     0.7500000000000000
    0.0555555623333333     0.5000000000000000     0.7500000000000000
    0.0555555623333333     0.2500000000000000     0.0000000000000000
    0.0000000000000000     0.0000000000000000     0.5000000000000000
    0.0000000000000000     0.7500000000000000     0.2500000000000000
    0.2777777910000000     0.0000000000000000     0.2500000000000000
    0.2777777910000000     0.7500000000000000     0.5000000000000000
    0.2222222290000000     0.0000000000000000     0.5000000000000000
    0.2222222290000000     0.7500000000000000     0.2500000000000000
    0.1666666666666667     0.0000000000000000     0.2500000000000000
    0.1666666666666667     0.7500000000000000     0.5000000000000000
    0.1111111243333333     0.0000000000000000     0.5000000000000000
    0.1111111243333333     0.7500000000000000     0.2500000000000000
    0.0555555623333333     0.0000000000000000     0.2500000000000000
    0.0555555623333333     0.7500000000000000     0.5000000000000000
    0.0000000000000000     0.5000000000000000     0.5000000000000000
    0.0000000000000000     0.2500000000000000     0.2500000000000000
    0.2777777910000000     0.5000000000000000     0.2500000000000000
    0.2777777910000000     0.2500000000000000     0.5000000000000000
    0.2222222290000000     0.5000000000000000     0.5000000000000000
    0.2222222290000000     0.2500000000000000     0.2500000000000000
    0.1666666666666667     0.5000000000000000     0.2500000000000000
    0.1666666666666667     0.2500000000000000     0.5000000000000000
    0.1111111243333333     0.5000000000000000     0.5000000000000000
    0.1111111243333333     0.2500000000000000     0.2500000000000000
    0.0555555623333333     0.5000000000000000     0.2500000000000000
    0.0555555623333333     0.2500000000000000     0.5000000000000000
