Structure (CO(2) Removed) by SLUSCHI
1.0
  -19.1450350000000000     4.7936290000000001    -4.7845370000000003
   -0.0083750000000000     7.2003279999999998     7.2200759999999997
    2.3959429999999999     9.5908560000000005    -2.3998849999999998
O/818f92134a0a    Zr_sv/25aed69c    C/253f7b50bb8d
20    33    33
Direct
    0.2181046580155659     0.4516488458454861     0.3793605349422548
    0.9966882061672757     0.1777834103249790     0.2269630254716520
    0.9106033090010741     0.1346888244309020     0.4309859527093568
    0.9941723954244340     0.8738559495418166     0.4403861397149343
    0.9678122447732036     0.2841438704990618     0.7905190849313276
    0.3163700187051618     0.5837217606182385     0.0931287116362715
    0.4749161287780549     0.6700856584335995     0.7516259354163392
    0.4670779375495178     0.7732754130770375     0.1463685932888102
    0.9578874854040863     0.6013429734127143     0.7802063658093423
    0.4324140990184041     0.8934382441429196     0.5333729285252531
    0.5042882447861254     0.9003254351400004     0.8398911619023446
    0.0768187321238128     0.3725543073708708     0.0157013638659603
    0.9050931072897200     0.4288051375391454     0.4551497194804265
    0.9609120499038584     0.9900666554099921     0.7248473668945685
    0.4917468915972522     0.2131226016757505     0.8292594998636182
    0.4988846349376100     0.4874476024466693     0.1768663980344683
    0.0368024335319222     0.2465588292944268     0.4597841317650439
    0.5584461792230432     0.4379098693142899     0.9388314672741455
    0.4980864650249778     0.2560935470295990     0.4430616391752158
    0.4946584823090197     0.5860026905585906     0.4631663608320158
    0.5037052199382573     0.0096468109368531     0.9950628334575371
    0.6257735188345483     0.1230958205563858     0.0982533023450649
    0.5005183406655954     0.0940960089206050     0.3642479215169048
    0.0597459183871899     0.3141246412757111     0.2414026881628248
    0.9062248665229483     0.0557958214834436     0.2713620190171304
    0.8109772526990735     0.0681664330696821     0.5352171229370809
    0.7230881813993826     0.0993912453682879     0.8050912303120622
    0.7711910505615980     0.2391760651063338     0.1784032174851130
    0.6806774151184297     0.2824040248071837     0.4349548135468879
    0.5790660018861673     0.2982551149472502     0.7372594717544930
    0.6361437400761032     0.4641478285294196     0.0676857061528105
    0.5530306491679471     0.4783036304272451     0.3359016121945406
    0.4992784062800983     0.6674831706202451     0.9900827161129031
    0.9543862495100235     0.2283809254659667     0.6185090626407058
    0.8579326620445690     0.2260590042292570     0.8910471434022426
    0.8988339015296097     0.3532188771750666     0.2423466635773384
    0.8150996393790413     0.3991265265388490     0.5343180243442284
    0.7180652088751259     0.4407982870680624     0.7951399780629560
    0.7636655512575359     0.5913530005372186     0.1617839640071820
    0.6734857334013740     0.6273809585656435     0.4240902013864255
    0.5812461116358246     0.6270648085280190     0.7275564940115768
    0.6331902079328935     0.7960193795897688     0.0713129048879305
    0.5482582804181638     0.7989413678982937     0.3368132676187628
    0.9848338677415681     0.3793097830259405     0.9354311014219265
    0.8540817155208836     0.5646352697709549     0.8692958797406404
    0.8998796402826746     0.7309848929255262     0.2521537664393406
    0.8102354312337343     0.7336456825314336     0.5285701248927661
    0.7260500748465218     0.7697274653472378     0.8078315657999574
    0.7744649858110879     0.9234585660421982     0.1507455891131143
    0.6905549057056986     0.9358005268802647     0.4305588043247309
    0.5879928854484141     0.9595603056324882     0.7137378298502510
    0.9426735682657641     0.8522788942862607     0.6447643996708254
    0.8577625136398433     0.9139048120965482     0.8841906381319833
    0.5165994970273312     0.0449776023509647     0.1907193426621574
    0.6921434467648843     0.9975536162462271     0.6266223057983994
    0.6033431880230307     0.0291849778009750     0.8986381940944552
    0.7513697402919315     0.1745920403855366     0.9849203894098270
    0.6702022076607154     0.1929610110268655     0.2763169520892746
    0.5505294988567280     0.1963691187726718     0.5157430415206142
    0.6011829876459055     0.1890929616513554     0.2892906348718035
    0.4775661512527603     0.8103639899260503     0.6250190549540213
    0.8447633779059425     0.1669167375563819     0.7038819894553847
    0.8888742128048392     0.3032114183613348     0.0670362001450344
    0.7967511450600727     0.3324359740920413     0.3558327293243697
    0.6918067567809550     0.3504796609979025     0.6300077685514209
    0.6123193464422171     0.3744635729406939     0.9019296535537970
    0.7386199662699237     0.5170391656478850     0.9713317642125450
    0.6573812041511033     0.5139999660386050     0.2591832735231842
    0.5564299271360019     0.5338113417432534     0.5346288842517049
    0.5336970331729914     0.7396500671108507     0.1534969036972819
    0.1745414274633137     0.4490829968830983     0.3211554691383140
    0.3731950194935940     0.5614061325715018     0.0735059005820166
    0.8238558102616219     0.4856559775202747     0.7152679082300070
    0.8855128627688570     0.6416187144979816     0.0610893344733128
    0.7911584599252380     0.6646417008193704     0.3451907656194982
    0.7060259155517993     0.6895432105480188     0.5939000318582222
    0.6126241040831495     0.7019638288827180     0.9160555900034130
    0.7514801473851418     0.8579020663194978     0.9586098473849041
    0.6593435956199650     0.8778797988211299     0.2584895898983458
    0.5477129126756287     0.8582549743265852     0.5871641864634289
    0.9485572320403342     0.5983474736619815     0.0950015992379072
    0.9464555928122206     0.8204635759695081     0.4047963172202735
    0.8377972249677226     0.8155922199926823     0.6983427426319697
    0.8800368778168426     0.9762835876807782     0.0584748958741911
    0.7995732210435159     0.9878804425817489     0.3632881762743258
    0.9907291401686865     0.5067413849921990     0.1818809509030916

   -0.0074859095000000     0.0039451048000000     0.0026299723000000
   -0.0045455600000000    -0.0053230934000000     0.0079509081000000
    0.0015570152000000     0.0022326921000000    -0.0037345100000000
   -0.0067196385000000     0.0108422970000000    -0.0154946020000000
   -0.0013983043000000    -0.0053978275000000    -0.0022563764000000
   -0.0096555406000000    -0.0076747944000000     0.0018922928000000
    0.0044115201000000     0.0064607631000000    -0.0007599377400000
    0.0075219899000000    -0.0007742496700000    -0.0097799857000000
    0.0025427299000000     0.0031771842000000    -0.0002226679500000
   -0.0054449836000000     0.0046686750000000     0.0003986067100000
    0.0010699139000000    -0.0060577725000000     0.0041129750000000
   -0.0040370516000000    -0.0090973688000000     0.0066742481000000
   -0.0044119574000000    -0.0039936743000000     0.0063036844000000
   -0.0044097926000000    -0.0187398060000000     0.0027398643000000
    0.0045851728000000     0.0095107425000000     0.0025191470000000
   -0.0019199033000000     0.0081221764000000    -0.0148866370000000
   -0.0006875411900000     0.0062722365000000    -0.0118940980000000
    0.0040785781000000    -0.0055563644000000    -0.0076768210000000
    0.0108287170000000    -0.0154984020000000    -0.0037075073000000
    0.0033933434000000    -0.0018869417000000    -0.0016027797000000
   -0.0038340197000000    -0.0003937684400000    -0.0026459241000000
   -0.0006328692700000     0.0030283653000000     0.0062675095000000
   -0.0022100690000000     0.0012100495000000     0.0045764744000000
    0.0007615986300000    -0.0032310568000000    -0.0032105671000000
    0.0032879692000000    -0.0005597157300000     0.0017725326000000
   -0.0022991498000000    -0.0023269889000000    -0.0015079528000000
    0.0015717975000000    -0.0007308727500000     0.0006627271200000
   -0.0058330472000000     0.0032796163000000    -0.0057401133000000
    0.0002411462900000     0.0019315499000000     0.0023173008000000
    0.0039986401000000    -0.0018990338000000    -0.0006141530600000
   -0.0020789472000000     0.0006659388800000    -0.0040616232000000
    0.0004680379400000     0.0000801391260000     0.0025573280000000
    0.0003970403000000    -0.0003018588000000    -0.0003138467600000
    0.0006107358400000     0.0076184010000000     0.0005079249200000
    0.0020184589000000     0.0055740880000000     0.0001259830900000
   -0.0022798852000000     0.0014501145000000     0.0007451698300000
    0.0000711469210000     0.0003629188700000     0.0042009127000000
   -0.0012065878000000     0.0027495387000000     0.0023698671000000
    0.0015774445000000     0.0020067748000000     0.0064333519000000
    0.0015792060000000     0.0013036529000000    -0.0027537731000000
    0.0006378805500000     0.0015487924000000    -0.0013959380000000
   -0.0059413007000000     0.0027848553000000     0.0000303364470000
    0.0016789724000000    -0.0006014439100000     0.0079133695000000
   -0.0032295781000000    -0.0022481626000000     0.0001788251700000
    0.0015672871000000    -0.0006696548600000    -0.0022019752000000
   -0.0036846619000000     0.0008026145900000    -0.0045257069000000
    0.0048995855000000    -0.0030099986000000     0.0030128655000000
    0.0015078302000000    -0.0058778506000000    -0.0005110964500000
   -0.0045096852000000    -0.0072426803000000     0.0035586430000000
   -0.0047512743000000    -0.0032823555000000    -0.0057720295000000
    0.0109617870000000     0.0005609410300000     0.0027094279000000
    0.0074071477000000     0.0024631668000000    -0.0035205549000000
   -0.0017082186000000     0.0016626522000000     0.0007845551800000
   -0.0028271470000000    -0.0076273525000000    -0.0005957694100000
    0.0015899696000000     0.0154824810000000    -0.0058786491000000
    0.0051040785000000    -0.0028913349000000     0.0098957905000000
   -0.0041765040000000     0.0143903910000000     0.0136337360000000
   -0.0010838468000000    -0.0234942670000000     0.0025604198000000
   -0.0056740955000000     0.0039505727000000    -0.0029032308000000
   -0.0047416494000000    -0.0003845605200000     0.0094571062000000
   -0.0094979432000000     0.0113126650000000     0.0038176117000000
    0.0015664188000000    -0.0020623168000000     0.0100906520000000
    0.0061076165000000    -0.0159410260000000     0.0004820728500000
   -0.0102974040000000    -0.0008355898500000    -0.0070020554000000
   -0.0068602657000000     0.0095587959000000    -0.0043945059000000
    0.0024519649000000    -0.0073944256000000    -0.0224109810000000
   -0.0052260080000000    -0.0150012730000000    -0.0024795323000000
    0.0040650832000000     0.0065305102000000     0.0013982877000000
   -0.0005848927700000     0.0134421410000000     0.0153541810000000
    0.0153332340000000     0.0079264382000000    -0.0017079996000000
    0.0124938000000000    -0.0103299540000000    -0.0024174232000000
    0.0039600331000000    -0.0107565310000000     0.0065645335000000
    0.0157562670000000     0.0003949224900000    -0.0078146062000000
    0.0073796759000000    -0.0023148270000000    -0.0165721580000000
    0.0021935941000000    -0.0104514160000000    -0.0119809050000000
   -0.0080990605000000     0.0079284094000000    -0.0123386890000000
   -0.0062437108000000    -0.0258328170000000     0.0074452248000000
    0.0094579611000000     0.0027123826000000     0.0029655622000000
    0.0051941426000000     0.0063811190000000    -0.0080396037000000
    0.0071979662000000    -0.0064484434000000    -0.0078470761000000
    0.0012517480000000    -0.0136048710000000     0.0035843500000000
   -0.0188000570000000     0.0156987830000000    -0.0159320090000000
   -0.0025177944000000    -0.0013798136000000    -0.0061029505000000
    0.0048933167000000    -0.0003608161600000    -0.0002909644400000
    0.0038103336000000    -0.0001672974900000    -0.0016038736000000
   -0.0168193880000000     0.0084205168000000     0.0093179250000000
